%
% Generated Sudoku 25x25
% Density approximation: 0.50
%
x = array2d(1..n, 1..n, [
   6,  13,   _,   _,   _,  15,   _,   _,   _,   _,   3,  16,  23,   _,   9,   _,   _,   4,  22,  25,   _,  21,  18,  11,   2,
   4,   _,   _,  10,   _,   _,   _,   8,  13,  16,  14,   _,   1,   2,   _,  24,   _,   9,   _,   _,   _,   _,   _,   _,   _,
   8,   3,   2,  16,   _,  22,   6,  14,  17,   _,  10,  19,  15,   _,   _,   7,   _,  13,  21,  18,   9,  25,   _,   _,  12,
   _,   _,  12,   _,  25,   _,   _,  23,   _,   _,  13,  18,   _,   _,   _,  19,   2,  11,  20,  17,  15,  16,   _,  24,   _,
   _,  24,   _,   _,   _,  21,   4,  18,   _,   _,  17,   _,   8,  25,  12,  14,  15,  16,   _,   _,  19,   _,   _,   6,   7,
   9,  20,   8,   _,   6,   _,   3,   4,   1,   _,   _,  11,   _,  15,   _,   _,  19,  10,   _,  24,  25,  22,   _,  13,   _,
  10,  23,  13,   3,   _,  18,  22,  20,  24,  17,   _,   1,   7,   _,  19,   _,  25,   _,  11,   _,   _,  14,   _,   _,   _,
   _,   _,   _,  19,  24,   _,   _,   2,   _,  13,  25,   _,   _,   _,  20,   1,   4,   8,  23,   _,   _,   3,   _,   _,   _,
   _,   _,   4,  18,   _,   _,   _,  12,  10,   _,  24,   _,   _,   _,   _,   _,   _,   _,  13,   5,  11,  19,   _,   2,   _,
   _,   _,   _,   _,   5,   9,  19,   _,   _,  11,   _,   _,   _,  10,  13,  18,  12,   _,   3,  16,   1,   8,  15,   _,  24,
   _,   _,  22,   _,   7,   _,  15,   9,   _,   4,   _,   _,  17,   3,   _,   _,   _,   _,   _,   _,   _,   _,   _,  14,  19,
   _,   _,  15,   4,   _,   _,  12,  22,  11,   _,   _,   9,   _,  14,   _,   _,   _,   3,   _,  13,   _,   1,   6,   8,   _,
   _,   2,   3,   _,  23,   7,   _,   _,   _,  24,   8,   _,  19,  13,   6,  11,   _,   _,   4,   _,  22,   _,  25,   _,  20,
   _,   _,   5,   8,  11,  13,  20,   _,   6,   _,   _,   _,   _,   7,   1,   _,   _,  24,   _,   2,   _,  23,   _,   _,   _,
   _,   _,   _,   _,   _,  19,   _,   _,   _,   3,   4,  25,   _,  23,   _,  22,   _,  20,   _,   _,   _,   _,  24,   _,   _,
   2,   _,   _,  11,  14,  23,   _,  15,   _,   _,  12,  17,   _,   _,  10,   _,  13,  22,   _,   4,   5,   _,   3,   _,   1,
   5,   _,  16,   _,   _,  10,   _,   3,  19,   1,   _,  23,   _,   _,  25,  12,   _,  17,   _,   _,   8,   _,   _,  22,   _,
  15,  10,   _,  21,   _,   _,  13,   _,  12,   _,   _,   _,   _,  19,   8,  25,   _,   _,   _,  23,  18,   4,   _,   _,  17,
  23,  12,   _,   _,  19,   _,  14,   _,   _,   6,   _,   _,   3,   _,   _,   5,   8,   _,   7,   1,   _,   _,   _,   _,  21,
   _,   _,   _,  24,   _,   4,   _,   _,   _,  18,   1,  13,  14,   _,   _,   _,  21,  19,  10,   _,  23,   7,   _,  25,   _,
  18,   _,   _,   _,   _,   _,  11,   _,  21,  15,   _,  22,   _,   1,   _,   _,   3,   _,   _,   _,  16,   6,   _,  17,   _,
  19,   _,   _,   _,  16,   _,   _,   5,   8,  20,   _,  10,  13,  12,   4,  17,   _,  25,   _,   _,  21,  18,  11,   _,   _,
   _,   1,   _,  15,   _,   2,   _,  16,   _,   _,   _,   8,  21,  20,   3,  13,   9,   _,  18,   _,   _,   5,  22,   _,  25,
   _,  11,  14,   _,  21,   6,   _,   _,  25,   9,   2,   5,  24,  17,  18,   _,  20,   _,   8,   _,  12,  10,   _,   _,   _,
   _,  17,   _,   6,   _,   _,  18,  10,  22,   _,  23,   7,  16,   _,  15,   _,   _,   _,  14,  21,   _,   _,   _,   _,   _
]);

n = 25;
